100
32
1
2
3
12
13
24
23
11
3
27
8
6
17
1
2
6
19
1
2
1
1
1
18
1
17
19
1
2
1
2
1
3
1
3
3
2
1
1
2
1
21
1
1
2
1
1
4
1
4
1
3
2
3
2
18
1
1
4
20
2
1
1
1
2
2
2
4
1
21
1
1
1
2
2
4
6
1
1
1
1
6
18
1
4
1
1
1
1
2
2
1
2
2
1
4
1
2
1
16
1